(set-logic ALL_SUPPORTED)
(declare-fun v!35 () Int)
(declare-fun t!31 () (_ BitVec 8))
(declare-fun t!30 () (_ BitVec 8))
(declare-fun t!32 () (_ BitVec 8))
(declare-fun t!33 () (_ BitVec 8))
(declare-fun t!27 () (_ BitVec 8))
(declare-fun t!26 () (_ BitVec 8))
(declare-fun t!28 () (_ BitVec 8))
(declare-fun t!29 () (_ BitVec 8))
(declare-fun t!23 () (_ BitVec 8))
(declare-fun t!22 () (_ BitVec 8))
(declare-fun t!24 () (_ BitVec 8))
(declare-fun t!25 () (_ BitVec 8))
(declare-fun t!19 () (_ BitVec 8))
(declare-fun t!18 () (_ BitVec 8))
(declare-fun t!20 () (_ BitVec 8))
(declare-fun t!21 () (_ BitVec 8))
(declare-fun t!15 () (_ BitVec 8))
(declare-fun t!14 () (_ BitVec 8))
(declare-fun t!16 () (_ BitVec 8))
(declare-fun t!17 () (_ BitVec 8))
(declare-fun t!11 () (_ BitVec 8))
(declare-fun t!10 () (_ BitVec 8))
(declare-fun t!12 () (_ BitVec 8))
(declare-fun t!13 () (_ BitVec 8))
(declare-fun t!7 () (_ BitVec 8))
(declare-fun t!6 () (_ BitVec 8))
(declare-fun t!8 () (_ BitVec 8))
(declare-fun t!9 () (_ BitVec 8))
(declare-fun t!3 () (_ BitVec 8))
(declare-fun t!2 () (_ BitVec 8))
(declare-fun t!4 () (_ BitVec 8))
(declare-fun t!5 () (_ BitVec 8))
(declare-fun t!1 () (_ BitVec 8))
(declare-fun t!0 () (_ BitVec 8))
(declare-fun t!34 () (_ BitVec 8))
(declare-fun rf!34 () (_ BitVec 8))
(declare-fun v!4 () Int)
(declare-fun rf!3 () (_ BitVec 8))
(declare-fun v!8 () Int)
(declare-fun v!12 () Int)
(declare-fun v!16 () Int)
(declare-fun v!20 () Int)
(declare-fun v!24 () Int)
(declare-fun v!28 () Int)
(declare-fun v!32 () Int)
(declare-fun rf!7 () (_ BitVec 8))
(declare-fun rf!11 () (_ BitVec 8))
(declare-fun rf!15 () (_ BitVec 8))
(declare-fun rf!19 () (_ BitVec 8))
(declare-fun rf!23 () (_ BitVec 8))
(declare-fun rf!27 () (_ BitVec 8))
(declare-fun rf!31 () (_ BitVec 8))
(assert (and true (<= 7 v!35)))
(assert (bvult (_ bv0 8) t!31))
(assert (bvult (_ bv0 8) t!30))
(assert (bvult (_ bv0 8) t!32))
(assert (bvult (_ bv0 8) t!33))
(assert (bvult (_ bv0 8) t!27))
(assert (bvult (_ bv0 8) t!26))
(assert (bvult (_ bv0 8) t!28))
(assert (bvult (_ bv0 8) t!29))
(assert (bvult (_ bv0 8) t!23))
(assert (bvult (_ bv0 8) t!22))
(assert (bvult (_ bv0 8) t!24))
(assert (bvult (_ bv0 8) t!25))
(assert (bvult (_ bv0 8) t!19))
(assert (bvult (_ bv0 8) t!18))
(assert (bvult (_ bv0 8) t!20))
(assert (bvult (_ bv0 8) t!21))
(assert (bvult (_ bv0 8) t!15))
(assert (bvult (_ bv0 8) t!14))
(assert (bvult (_ bv0 8) t!16))
(assert (bvult (_ bv0 8) t!17))
(assert (bvult (_ bv0 8) t!11))
(assert (bvult (_ bv0 8) t!10))
(assert (bvult (_ bv0 8) t!12))
(assert (bvult (_ bv0 8) t!13))
(assert (bvult (_ bv0 8) t!7))
(assert (bvult (_ bv0 8) t!6))
(assert (bvult (_ bv0 8) t!8))
(assert (bvult (_ bv0 8) t!9))
(assert (bvult (_ bv0 8) t!3))
(assert (bvult (_ bv0 8) t!2))
(assert (bvult (_ bv0 8) t!4))
(assert (bvult (_ bv0 8) t!5))
(assert (bvult (_ bv0 8) t!1))
(assert (bvult (_ bv0 8) t!0))
(assert (bvult (_ bv0 8) t!34))
(assert (and (and (and (and (and (and (and (and (and (and (and (and (and (and (and (and (and (and (and (and (and (and (and (and (and (and (and (and (and (and (and (and (and (and true (bvult t!30 t!31)) (bvult t!31 t!32)) (bvult t!32 t!33)) (bvult t!26 t!27)) (bvult t!27 t!28)) (bvult t!28 t!29)) (bvult t!22 t!23)) (bvult t!23 t!24)) (bvult t!24 t!25)) (bvult t!18 t!19)) (bvult t!19 t!20)) (bvult t!20 t!21)) (bvult t!14 t!15)) (bvult t!15 t!16)) (bvult t!16 t!17)) (bvult t!10 t!11)) (bvult t!11 t!12)) (bvult t!12 t!13)) (bvult t!6 t!7)) (bvult t!7 t!8)) (bvult t!8 t!9)) (bvult t!2 t!3)) (bvult t!3 t!4)) (bvult t!4 t!5)) (bvult t!0 t!1)) (bvult t!1 t!2)) (bvult t!2 t!6)) (bvult t!6 t!10)) (bvult t!10 t!14)) (bvult t!14 t!18)) (bvult t!18 t!22)) (bvult t!22 t!26)) (bvult t!26 t!30)) (bvult t!30 t!34)))
(assert (let ((_let_0 (= (_ bv1 8) rf!34))) (let ((_let_1 (and true true))) (let ((_let_2 (= (_ bv4 8) rf!34))) (let ((_let_3 (= (_ bv0 8) rf!3))) (let ((_let_4 (= (_ bv8 8) rf!3))) (let ((_let_5 (+ v!8 1))) (let ((_let_6 (= (_ bv12 8) rf!3))) (let ((_let_7 (+ v!12 1))) (let ((_let_8 (= (_ bv16 8) rf!3))) (let ((_let_9 (+ v!16 1))) (let ((_let_10 (= (_ bv20 8) rf!3))) (let ((_let_11 (+ v!20 1))) (let ((_let_12 (= (_ bv24 8) rf!3))) (let ((_let_13 (+ v!24 1))) (let ((_let_14 (= (_ bv28 8) rf!3))) (let ((_let_15 (+ v!28 1))) (let ((_let_16 (= (_ bv32 8) rf!3))) (let ((_let_17 (+ v!32 1))) (let ((_let_18 (= (_ bv0 8) rf!7))) (let ((_let_19 (= (_ bv8 8) rf!7))) (let ((_let_20 (= (_ bv12 8) rf!7))) (let ((_let_21 (= (_ bv16 8) rf!7))) (let ((_let_22 (= (_ bv20 8) rf!7))) (let ((_let_23 (= (_ bv24 8) rf!7))) (let ((_let_24 (= (_ bv28 8) rf!7))) (let ((_let_25 (= (_ bv32 8) rf!7))) (let ((_let_26 (= (_ bv0 8) rf!11))) (let ((_let_27 (= (_ bv8 8) rf!11))) (let ((_let_28 (= (_ bv12 8) rf!11))) (let ((_let_29 (= (_ bv16 8) rf!11))) (let ((_let_30 (= (_ bv20 8) rf!11))) (let ((_let_31 (= (_ bv24 8) rf!11))) (let ((_let_32 (= (_ bv28 8) rf!11))) (let ((_let_33 (= (_ bv32 8) rf!11))) (let ((_let_34 (= (_ bv0 8) rf!15))) (let ((_let_35 (= (_ bv8 8) rf!15))) (let ((_let_36 (= (_ bv12 8) rf!15))) (let ((_let_37 (= (_ bv16 8) rf!15))) (let ((_let_38 (= (_ bv20 8) rf!15))) (let ((_let_39 (= (_ bv24 8) rf!15))) (let ((_let_40 (= (_ bv28 8) rf!15))) (let ((_let_41 (= (_ bv32 8) rf!15))) (let ((_let_42 (= (_ bv0 8) rf!19))) (let ((_let_43 (= (_ bv8 8) rf!19))) (let ((_let_44 (= (_ bv12 8) rf!19))) (let ((_let_45 (= (_ bv16 8) rf!19))) (let ((_let_46 (= (_ bv20 8) rf!19))) (let ((_let_47 (= (_ bv24 8) rf!19))) (let ((_let_48 (= (_ bv28 8) rf!19))) (let ((_let_49 (= (_ bv32 8) rf!19))) (let ((_let_50 (= (_ bv0 8) rf!23))) (let ((_let_51 (= (_ bv8 8) rf!23))) (let ((_let_52 (= (_ bv12 8) rf!23))) (let ((_let_53 (= (_ bv16 8) rf!23))) (let ((_let_54 (= (_ bv20 8) rf!23))) (let ((_let_55 (= (_ bv24 8) rf!23))) (let ((_let_56 (= (_ bv28 8) rf!23))) (let ((_let_57 (= (_ bv32 8) rf!23))) (let ((_let_58 (= (_ bv0 8) rf!27))) (let ((_let_59 (= (_ bv8 8) rf!27))) (let ((_let_60 (= (_ bv12 8) rf!27))) (let ((_let_61 (= (_ bv16 8) rf!27))) (let ((_let_62 (= (_ bv20 8) rf!27))) (let ((_let_63 (= (_ bv24 8) rf!27))) (let ((_let_64 (= (_ bv28 8) rf!27))) (let ((_let_65 (= (_ bv32 8) rf!27))) (let ((_let_66 (= (_ bv0 8) rf!31))) (let ((_let_67 (= (_ bv8 8) rf!31))) (let ((_let_68 (= (_ bv12 8) rf!31))) (let ((_let_69 (= (_ bv16 8) rf!31))) (let ((_let_70 (= (_ bv20 8) rf!31))) (let ((_let_71 (= (_ bv24 8) rf!31))) (let ((_let_72 (= (_ bv28 8) rf!31))) (let ((_let_73 (= (_ bv32 8) rf!31))) (and (and (and (and (and (and (and (and (and (and (and (and (and (and (and (and (and (and (and (and (and (and (and (and (and (and (and (and (and (and (and (and (and (and (and (and (and (and (and (and (and (and (and (and (and (and (and (and (and (and (and (and (and (and (and (and (and (and (and (and (and (and (and (and (and (and (and (and (and (and (and (and (and (and (and true (=> _let_0 (and (and _let_1 (bvult t!1 t!34)) (= 0 v!35)))) (=> _let_2 (and (and _let_1 (bvult t!4 t!34)) (= v!4 v!35)))) (=> true (or _let_2 (or _let_0 false)))) (=> _let_3 (and (and _let_1 (bvult t!0 t!3)) (= 0 v!4)))) (=> _let_4 (and (and _let_1 (bvult t!8 t!3)) (= _let_5 v!4)))) (=> _let_6 (and (and _let_1 (bvult t!12 t!3)) (= _let_7 v!4)))) (=> _let_8 (and (and _let_1 (bvult t!16 t!3)) (= _let_9 v!4)))) (=> _let_10 (and (and _let_1 (bvult t!20 t!3)) (= _let_11 v!4)))) (=> _let_12 (and (and _let_1 (bvult t!24 t!3)) (= _let_13 v!4)))) (=> _let_14 (and (and _let_1 (bvult t!28 t!3)) (= _let_15 v!4)))) (=> _let_16 (and (and _let_1 (bvult t!32 t!3)) (= _let_17 v!4)))) (=> true (or _let_16 (or _let_14 (or _let_12 (or _let_10 (or _let_8 (or _let_6 (or _let_4 (or _let_3 false)))))))))) (=> _let_18 (and (and _let_1 (bvult t!0 t!7)) (= 0 v!8)))) (=> _let_19 (and (and _let_1 (bvult t!8 t!7)) (= _let_5 v!8)))) (=> _let_20 (and (and _let_1 (bvult t!12 t!7)) (= _let_7 v!8)))) (=> _let_21 (and (and _let_1 (bvult t!16 t!7)) (= _let_9 v!8)))) (=> _let_22 (and (and _let_1 (bvult t!20 t!7)) (= _let_11 v!8)))) (=> _let_23 (and (and _let_1 (bvult t!24 t!7)) (= _let_13 v!8)))) (=> _let_24 (and (and _let_1 (bvult t!28 t!7)) (= _let_15 v!8)))) (=> _let_25 (and (and _let_1 (bvult t!32 t!7)) (= _let_17 v!8)))) (=> true (or _let_25 (or _let_24 (or _let_23 (or _let_22 (or _let_21 (or _let_20 (or _let_19 (or _let_18 false)))))))))) (=> _let_26 (and (and _let_1 (bvult t!0 t!11)) (= 0 v!12)))) (=> _let_27 (and (and _let_1 (bvult t!8 t!11)) (= _let_5 v!12)))) (=> _let_28 (and (and _let_1 (bvult t!12 t!11)) (= _let_7 v!12)))) (=> _let_29 (and (and _let_1 (bvult t!16 t!11)) (= _let_9 v!12)))) (=> _let_30 (and (and _let_1 (bvult t!20 t!11)) (= _let_11 v!12)))) (=> _let_31 (and (and _let_1 (bvult t!24 t!11)) (= _let_13 v!12)))) (=> _let_32 (and (and _let_1 (bvult t!28 t!11)) (= _let_15 v!12)))) (=> _let_33 (and (and _let_1 (bvult t!32 t!11)) (= _let_17 v!12)))) (=> true (or _let_33 (or _let_32 (or _let_31 (or _let_30 (or _let_29 (or _let_28 (or _let_27 (or _let_26 false)))))))))) (=> _let_34 (and (and _let_1 (bvult t!0 t!15)) (= 0 v!16)))) (=> _let_35 (and (and _let_1 (bvult t!8 t!15)) (= _let_5 v!16)))) (=> _let_36 (and (and _let_1 (bvult t!12 t!15)) (= _let_7 v!16)))) (=> _let_37 (and (and _let_1 (bvult t!16 t!15)) (= _let_9 v!16)))) (=> _let_38 (and (and _let_1 (bvult t!20 t!15)) (= _let_11 v!16)))) (=> _let_39 (and (and _let_1 (bvult t!24 t!15)) (= _let_13 v!16)))) (=> _let_40 (and (and _let_1 (bvult t!28 t!15)) (= _let_15 v!16)))) (=> _let_41 (and (and _let_1 (bvult t!32 t!15)) (= _let_17 v!16)))) (=> true (or _let_41 (or _let_40 (or _let_39 (or _let_38 (or _let_37 (or _let_36 (or _let_35 (or _let_34 false)))))))))) (=> _let_42 (and (and _let_1 (bvult t!0 t!19)) (= 0 v!20)))) (=> _let_43 (and (and _let_1 (bvult t!8 t!19)) (= _let_5 v!20)))) (=> _let_44 (and (and _let_1 (bvult t!12 t!19)) (= _let_7 v!20)))) (=> _let_45 (and (and _let_1 (bvult t!16 t!19)) (= _let_9 v!20)))) (=> _let_46 (and (and _let_1 (bvult t!20 t!19)) (= _let_11 v!20)))) (=> _let_47 (and (and _let_1 (bvult t!24 t!19)) (= _let_13 v!20)))) (=> _let_48 (and (and _let_1 (bvult t!28 t!19)) (= _let_15 v!20)))) (=> _let_49 (and (and _let_1 (bvult t!32 t!19)) (= _let_17 v!20)))) (=> true (or _let_49 (or _let_48 (or _let_47 (or _let_46 (or _let_45 (or _let_44 (or _let_43 (or _let_42 false)))))))))) (=> _let_50 (and (and _let_1 (bvult t!0 t!23)) (= 0 v!24)))) (=> _let_51 (and (and _let_1 (bvult t!8 t!23)) (= _let_5 v!24)))) (=> _let_52 (and (and _let_1 (bvult t!12 t!23)) (= _let_7 v!24)))) (=> _let_53 (and (and _let_1 (bvult t!16 t!23)) (= _let_9 v!24)))) (=> _let_54 (and (and _let_1 (bvult t!20 t!23)) (= _let_11 v!24)))) (=> _let_55 (and (and _let_1 (bvult t!24 t!23)) (= _let_13 v!24)))) (=> _let_56 (and (and _let_1 (bvult t!28 t!23)) (= _let_15 v!24)))) (=> _let_57 (and (and _let_1 (bvult t!32 t!23)) (= _let_17 v!24)))) (=> true (or _let_57 (or _let_56 (or _let_55 (or _let_54 (or _let_53 (or _let_52 (or _let_51 (or _let_50 false)))))))))) (=> _let_58 (and (and _let_1 (bvult t!0 t!27)) (= 0 v!28)))) (=> _let_59 (and (and _let_1 (bvult t!8 t!27)) (= _let_5 v!28)))) (=> _let_60 (and (and _let_1 (bvult t!12 t!27)) (= _let_7 v!28)))) (=> _let_61 (and (and _let_1 (bvult t!16 t!27)) (= _let_9 v!28)))) (=> _let_62 (and (and _let_1 (bvult t!20 t!27)) (= _let_11 v!28)))) (=> _let_63 (and (and _let_1 (bvult t!24 t!27)) (= _let_13 v!28)))) (=> _let_64 (and (and _let_1 (bvult t!28 t!27)) (= _let_15 v!28)))) (=> _let_65 (and (and _let_1 (bvult t!32 t!27)) (= _let_17 v!28)))) (=> true (or _let_65 (or _let_64 (or _let_63 (or _let_62 (or _let_61 (or _let_60 (or _let_59 (or _let_58 false)))))))))) (=> _let_66 (and (and _let_1 (bvult t!0 t!31)) (= 0 v!32)))) (=> _let_67 (and (and _let_1 (bvult t!8 t!31)) (= _let_5 v!32)))) (=> _let_68 (and (and _let_1 (bvult t!12 t!31)) (= _let_7 v!32)))) (=> _let_69 (and (and _let_1 (bvult t!16 t!31)) (= _let_9 v!32)))) (=> _let_70 (and (and _let_1 (bvult t!20 t!31)) (= _let_11 v!32)))) (=> _let_71 (and (and _let_1 (bvult t!24 t!31)) (= _let_13 v!32)))) (=> _let_72 (and (and _let_1 (bvult t!28 t!31)) (= _let_15 v!32)))) (=> _let_73 (and (and _let_1 (bvult t!32 t!31)) (= _let_17 v!32)))) (=> true (or _let_73 (or _let_72 (or _let_71 (or _let_70 (or _let_69 (or _let_68 (or _let_67 (or _let_66 false)))))))))))))))))))))))))))))))))))))))))))))))))))))))))))))))))))))))))))))))))))))
(assert (let ((_let_0 (bvult t!31 t!32))) (let ((_let_1 (bvult t!27 t!28))) (let ((_let_2 (bvult t!23 t!24))) (let ((_let_3 (bvult t!19 t!20))) (let ((_let_4 (bvult t!15 t!16))) (let ((_let_5 (bvult t!11 t!12))) (let ((_let_6 (bvult t!7 t!8))) (let ((_let_7 (and (= (_ bv0 8) rf!3) true))) (let ((_let_8 (bvult t!0 t!8))) (let ((_let_9 (bvult t!3 t!8))) (let ((_let_10 (bvult t!0 t!12))) (let ((_let_11 (bvult t!3 t!12))) (let ((_let_12 (bvult t!0 t!16))) (let ((_let_13 (bvult t!3 t!16))) (let ((_let_14 (bvult t!0 t!20))) (let ((_let_15 (bvult t!3 t!20))) (let ((_let_16 (bvult t!0 t!24))) (let ((_let_17 (bvult t!3 t!24))) (let ((_let_18 (bvult t!0 t!28))) (let ((_let_19 (bvult t!3 t!28))) (let ((_let_20 (bvult t!0 t!32))) (let ((_let_21 (bvult t!3 t!32))) (let ((_let_22 (and (= (_ bv8 8) rf!3) true))) (let ((_let_23 (bvult t!8 t!0))) (let ((_let_24 (bvult t!3 t!0))) (let ((_let_25 (bvult t!8 t!12))) (let ((_let_26 (bvult t!8 t!16))) (let ((_let_27 (bvult t!8 t!20))) (let ((_let_28 (bvult t!8 t!24))) (let ((_let_29 (bvult t!8 t!28))) (let ((_let_30 (bvult t!8 t!32))) (let ((_let_31 (and (= (_ bv12 8) rf!3) true))) (let ((_let_32 (bvult t!12 t!0))) (let ((_let_33 (bvult t!12 t!8))) (let ((_let_34 (bvult t!12 t!16))) (let ((_let_35 (bvult t!12 t!20))) (let ((_let_36 (bvult t!12 t!24))) (let ((_let_37 (bvult t!12 t!28))) (let ((_let_38 (bvult t!12 t!32))) (let ((_let_39 (and (= (_ bv16 8) rf!3) true))) (let ((_let_40 (bvult t!16 t!0))) (let ((_let_41 (bvult t!16 t!8))) (let ((_let_42 (bvult t!16 t!12))) (let ((_let_43 (bvult t!16 t!20))) (let ((_let_44 (bvult t!16 t!24))) (let ((_let_45 (bvult t!16 t!28))) (let ((_let_46 (bvult t!16 t!32))) (let ((_let_47 (and (= (_ bv20 8) rf!3) true))) (let ((_let_48 (bvult t!20 t!0))) (let ((_let_49 (bvult t!20 t!8))) (let ((_let_50 (bvult t!20 t!12))) (let ((_let_51 (bvult t!20 t!16))) (let ((_let_52 (bvult t!20 t!24))) (let ((_let_53 (bvult t!20 t!28))) (let ((_let_54 (bvult t!20 t!32))) (let ((_let_55 (and (= (_ bv24 8) rf!3) true))) (let ((_let_56 (bvult t!24 t!0))) (let ((_let_57 (bvult t!24 t!8))) (let ((_let_58 (bvult t!24 t!12))) (let ((_let_59 (bvult t!24 t!16))) (let ((_let_60 (bvult t!24 t!20))) (let ((_let_61 (bvult t!24 t!28))) (let ((_let_62 (bvult t!24 t!32))) (let ((_let_63 (and (= (_ bv28 8) rf!3) true))) (let ((_let_64 (bvult t!28 t!0))) (let ((_let_65 (bvult t!28 t!8))) (let ((_let_66 (bvult t!28 t!12))) (let ((_let_67 (bvult t!28 t!16))) (let ((_let_68 (bvult t!28 t!20))) (let ((_let_69 (bvult t!28 t!24))) (let ((_let_70 (bvult t!28 t!32))) (let ((_let_71 (and (= (_ bv32 8) rf!3) true))) (let ((_let_72 (bvult t!32 t!0))) (let ((_let_73 (bvult t!32 t!8))) (let ((_let_74 (bvult t!32 t!12))) (let ((_let_75 (bvult t!32 t!16))) (let ((_let_76 (bvult t!32 t!20))) (let ((_let_77 (bvult t!32 t!24))) (let ((_let_78 (bvult t!32 t!28))) (let ((_let_79 (and (= (_ bv0 8) rf!7) true))) (let ((_let_80 (bvult t!7 t!12))) (let ((_let_81 (bvult t!7 t!16))) (let ((_let_82 (bvult t!7 t!20))) (let ((_let_83 (bvult t!7 t!24))) (let ((_let_84 (bvult t!7 t!28))) (let ((_let_85 (bvult t!7 t!32))) (let ((_let_86 (and (= (_ bv8 8) rf!7) true))) (let ((_let_87 (bvult t!7 t!0))) (let ((_let_88 (and (= (_ bv12 8) rf!7) true))) (let ((_let_89 (and (= (_ bv16 8) rf!7) true))) (let ((_let_90 (and (= (_ bv20 8) rf!7) true))) (let ((_let_91 (and (= (_ bv24 8) rf!7) true))) (let ((_let_92 (and (= (_ bv28 8) rf!7) true))) (let ((_let_93 (and (= (_ bv32 8) rf!7) true))) (let ((_let_94 (and (= (_ bv0 8) rf!11) true))) (let ((_let_95 (bvult t!11 t!8))) (let ((_let_96 (bvult t!11 t!16))) (let ((_let_97 (bvult t!11 t!20))) (let ((_let_98 (bvult t!11 t!24))) (let ((_let_99 (bvult t!11 t!28))) (let ((_let_100 (bvult t!11 t!32))) (let ((_let_101 (and (= (_ bv8 8) rf!11) true))) (let ((_let_102 (bvult t!11 t!0))) (let ((_let_103 (and (= (_ bv12 8) rf!11) true))) (let ((_let_104 (and (= (_ bv16 8) rf!11) true))) (let ((_let_105 (and (= (_ bv20 8) rf!11) true))) (let ((_let_106 (and (= (_ bv24 8) rf!11) true))) (let ((_let_107 (and (= (_ bv28 8) rf!11) true))) (let ((_let_108 (and (= (_ bv32 8) rf!11) true))) (let ((_let_109 (and (= (_ bv0 8) rf!15) true))) (let ((_let_110 (bvult t!15 t!8))) (let ((_let_111 (bvult t!15 t!12))) (let ((_let_112 (bvult t!15 t!20))) (let ((_let_113 (bvult t!15 t!24))) (let ((_let_114 (bvult t!15 t!28))) (let ((_let_115 (bvult t!15 t!32))) (let ((_let_116 (and (= (_ bv8 8) rf!15) true))) (let ((_let_117 (bvult t!15 t!0))) (let ((_let_118 (and (= (_ bv12 8) rf!15) true))) (let ((_let_119 (and (= (_ bv16 8) rf!15) true))) (let ((_let_120 (and (= (_ bv20 8) rf!15) true))) (let ((_let_121 (and (= (_ bv24 8) rf!15) true))) (let ((_let_122 (and (= (_ bv28 8) rf!15) true))) (let ((_let_123 (and (= (_ bv32 8) rf!15) true))) (let ((_let_124 (and (= (_ bv0 8) rf!19) true))) (let ((_let_125 (bvult t!19 t!8))) (let ((_let_126 (bvult t!19 t!12))) (let ((_let_127 (bvult t!19 t!16))) (let ((_let_128 (bvult t!19 t!24))) (let ((_let_129 (bvult t!19 t!28))) (let ((_let_130 (bvult t!19 t!32))) (let ((_let_131 (and (= (_ bv8 8) rf!19) true))) (let ((_let_132 (bvult t!19 t!0))) (let ((_let_133 (and (= (_ bv12 8) rf!19) true))) (let ((_let_134 (and (= (_ bv16 8) rf!19) true))) (let ((_let_135 (and (= (_ bv20 8) rf!19) true))) (let ((_let_136 (and (= (_ bv24 8) rf!19) true))) (let ((_let_137 (and (= (_ bv28 8) rf!19) true))) (let ((_let_138 (and (= (_ bv32 8) rf!19) true))) (let ((_let_139 (and (= (_ bv0 8) rf!23) true))) (let ((_let_140 (bvult t!23 t!8))) (let ((_let_141 (bvult t!23 t!12))) (let ((_let_142 (bvult t!23 t!16))) (let ((_let_143 (bvult t!23 t!20))) (let ((_let_144 (bvult t!23 t!28))) (let ((_let_145 (bvult t!23 t!32))) (let ((_let_146 (and (= (_ bv8 8) rf!23) true))) (let ((_let_147 (bvult t!23 t!0))) (let ((_let_148 (and (= (_ bv12 8) rf!23) true))) (let ((_let_149 (and (= (_ bv16 8) rf!23) true))) (let ((_let_150 (and (= (_ bv20 8) rf!23) true))) (let ((_let_151 (and (= (_ bv24 8) rf!23) true))) (let ((_let_152 (and (= (_ bv28 8) rf!23) true))) (let ((_let_153 (and (= (_ bv32 8) rf!23) true))) (let ((_let_154 (and (= (_ bv0 8) rf!27) true))) (let ((_let_155 (bvult t!27 t!8))) (let ((_let_156 (bvult t!27 t!12))) (let ((_let_157 (bvult t!27 t!16))) (let ((_let_158 (bvult t!27 t!20))) (let ((_let_159 (bvult t!27 t!24))) (let ((_let_160 (bvult t!27 t!32))) (let ((_let_161 (and (= (_ bv8 8) rf!27) true))) (let ((_let_162 (bvult t!27 t!0))) (let ((_let_163 (and (= (_ bv12 8) rf!27) true))) (let ((_let_164 (and (= (_ bv16 8) rf!27) true))) (let ((_let_165 (and (= (_ bv20 8) rf!27) true))) (let ((_let_166 (and (= (_ bv24 8) rf!27) true))) (let ((_let_167 (and (= (_ bv28 8) rf!27) true))) (let ((_let_168 (and (= (_ bv32 8) rf!27) true))) (let ((_let_169 (and (= (_ bv0 8) rf!31) true))) (let ((_let_170 (bvult t!31 t!8))) (let ((_let_171 (bvult t!31 t!12))) (let ((_let_172 (bvult t!31 t!16))) (let ((_let_173 (bvult t!31 t!20))) (let ((_let_174 (bvult t!31 t!24))) (let ((_let_175 (bvult t!31 t!28))) (let ((_let_176 (and (= (_ bv8 8) rf!31) true))) (let ((_let_177 (bvult t!31 t!0))) (let ((_let_178 (and (= (_ bv12 8) rf!31) true))) (let ((_let_179 (and (= (_ bv16 8) rf!31) true))) (let ((_let_180 (and (= (_ bv20 8) rf!31) true))) (let ((_let_181 (and (= (_ bv24 8) rf!31) true))) (let ((_let_182 (and (= (_ bv28 8) rf!31) true))) (let ((_let_183 (and (= (_ bv32 8) rf!31) true))) (and (and (and (and (and (and (and (and (and (and (and (and (and (and (and (and (and (and (and (and (and (and (and (and (and (and (and (and (and (and (and (and (and (and (and (and (and (and (and (and (and (and (and (and (and (and (and (and (and (and (and (and (and (and (and (and (and (and (and (and (and (and (and (and (and (and (and (and (and (and (and (and (and (and (and (and (and (and (and (and (and (and (and (and (and (and (and (and (and (and (and (and (and (and (and (and (and (and (and (and (and (and (and (and (and (and (and (and (and (and (and (and (and (and (and (and (and (and (and (and (and (and (and (and (and (and (and (and (and (and (and (and (and (and (and (and (and (and (and (and (and (and (and (and (and (and (and (and (and (and (and (and (and (and (and (and (and (and (and (and (and (and (and (and (and (and (and (and (and (and (and (and (and (and (and (and (and (and (and (and (and (and (and (and (and (and (and (and (and (and (and (and (and (and (and (and (and (and (and (and (and (and (and (and (and (and (and (and (and (and (and (and (and (and (and (and (and (and (and (and (and (and (and (and (and (and (and (and (and (and (and (and (and (and (and (and (and (and (and (and (and (and (and (and (and (and (and (and (and (and (and (and (and (and (and (and (and (and (and (and (and (and (and (and (and (and (and (and (and (and (and (and (and (and (and (and (and (and (and (and (and (and (and (and (and (and (and (and (and (and (and (and (and (and (and (and (and (and (and (and (and (and (and (and (and (and (and (and (and (and (and (and (and (and (and (and (and (and (and (and (and (and (and (and (and (and (and (and (and (and (and (and (and (and (and (and (and (and (and (and (and (and (and (and (and (and (and (and (and (and (and (and (and (and (and (and (and (and (and (and (and (and (and (and (and (and (and (and (and (and (and (and (and (and (and (and (and (and (and (and (and (and (and (and (and (and (and (and (and (and (and (and (and (and (and (and (and (and (and (and (and (and (and (and (and (and (and (and (and (and (and (and (and (and (and (and (and (and (and (and (and (and (and (and (and (and (and (and (and (and (and (and (and (and (and (and (and (and (and (and (and (and (and (and (and (and (and (and (and (and true (=> (and (and (= (_ bv1 8) rf!34) true) (bvult t!1 t!4)) (bvult t!34 t!4))) (=> (and (and (= (_ bv4 8) rf!34) true) (bvult t!4 t!1)) (bvult t!34 t!1))) (=> (and _let_7 _let_8) _let_9)) (=> (and _let_7 _let_10) _let_11)) (=> (and _let_7 _let_12) _let_13)) (=> (and _let_7 _let_14) _let_15)) (=> (and _let_7 _let_16) _let_17)) (=> (and _let_7 _let_18) _let_19)) (=> (and _let_7 _let_20) _let_21)) (=> (and _let_22 _let_23) _let_24)) (=> (and _let_22 _let_25) _let_11)) (=> (and _let_22 _let_26) _let_13)) (=> (and _let_22 _let_27) _let_15)) (=> (and _let_22 _let_28) _let_17)) (=> (and _let_22 _let_29) _let_19)) (=> (and _let_22 _let_30) _let_21)) (=> (and _let_31 _let_32) _let_24)) (=> (and _let_31 _let_33) _let_9)) (=> (and _let_31 _let_34) _let_13)) (=> (and _let_31 _let_35) _let_15)) (=> (and _let_31 _let_36) _let_17)) (=> (and _let_31 _let_37) _let_19)) (=> (and _let_31 _let_38) _let_21)) (=> (and _let_39 _let_40) _let_24)) (=> (and _let_39 _let_41) _let_9)) (=> (and _let_39 _let_42) _let_11)) (=> (and _let_39 _let_43) _let_15)) (=> (and _let_39 _let_44) _let_17)) (=> (and _let_39 _let_45) _let_19)) (=> (and _let_39 _let_46) _let_21)) (=> (and _let_47 _let_48) _let_24)) (=> (and _let_47 _let_49) _let_9)) (=> (and _let_47 _let_50) _let_11)) (=> (and _let_47 _let_51) _let_13)) (=> (and _let_47 _let_52) _let_17)) (=> (and _let_47 _let_53) _let_19)) (=> (and _let_47 _let_54) _let_21)) (=> (and _let_55 _let_56) _let_24)) (=> (and _let_55 _let_57) _let_9)) (=> (and _let_55 _let_58) _let_11)) (=> (and _let_55 _let_59) _let_13)) (=> (and _let_55 _let_60) _let_15)) (=> (and _let_55 _let_61) _let_19)) (=> (and _let_55 _let_62) _let_21)) (=> (and _let_63 _let_64) _let_24)) (=> (and _let_63 _let_65) _let_9)) (=> (and _let_63 _let_66) _let_11)) (=> (and _let_63 _let_67) _let_13)) (=> (and _let_63 _let_68) _let_15)) (=> (and _let_63 _let_69) _let_17)) (=> (and _let_63 _let_70) _let_21)) (=> (and _let_71 _let_72) _let_24)) (=> (and _let_71 _let_73) _let_9)) (=> (and _let_71 _let_74) _let_11)) (=> (and _let_71 _let_75) _let_13)) (=> (and _let_71 _let_76) _let_15)) (=> (and _let_71 _let_77) _let_17)) (=> (and _let_71 _let_78) _let_19)) (=> (and _let_79 _let_8) _let_6)) (=> (and _let_79 _let_10) _let_80)) (=> (and _let_79 _let_12) _let_81)) (=> (and _let_79 _let_14) _let_82)) (=> (and _let_79 _let_16) _let_83)) (=> (and _let_79 _let_18) _let_84)) (=> (and _let_79 _let_20) _let_85)) (=> (and _let_86 _let_23) _let_87)) (=> (and _let_86 _let_25) _let_80)) (=> (and _let_86 _let_26) _let_81)) (=> (and _let_86 _let_27) _let_82)) (=> (and _let_86 _let_28) _let_83)) (=> (and _let_86 _let_29) _let_84)) (=> (and _let_86 _let_30) _let_85)) (=> (and _let_88 _let_32) _let_87)) (=> (and _let_88 _let_33) _let_6)) (=> (and _let_88 _let_34) _let_81)) (=> (and _let_88 _let_35) _let_82)) (=> (and _let_88 _let_36) _let_83)) (=> (and _let_88 _let_37) _let_84)) (=> (and _let_88 _let_38) _let_85)) (=> (and _let_89 _let_40) _let_87)) (=> (and _let_89 _let_41) _let_6)) (=> (and _let_89 _let_42) _let_80)) (=> (and _let_89 _let_43) _let_82)) (=> (and _let_89 _let_44) _let_83)) (=> (and _let_89 _let_45) _let_84)) (=> (and _let_89 _let_46) _let_85)) (=> (and _let_90 _let_48) _let_87)) (=> (and _let_90 _let_49) _let_6)) (=> (and _let_90 _let_50) _let_80)) (=> (and _let_90 _let_51) _let_81)) (=> (and _let_90 _let_52) _let_83)) (=> (and _let_90 _let_53) _let_84)) (=> (and _let_90 _let_54) _let_85)) (=> (and _let_91 _let_56) _let_87)) (=> (and _let_91 _let_57) _let_6)) (=> (and _let_91 _let_58) _let_80)) (=> (and _let_91 _let_59) _let_81)) (=> (and _let_91 _let_60) _let_82)) (=> (and _let_91 _let_61) _let_84)) (=> (and _let_91 _let_62) _let_85)) (=> (and _let_92 _let_64) _let_87)) (=> (and _let_92 _let_65) _let_6)) (=> (and _let_92 _let_66) _let_80)) (=> (and _let_92 _let_67) _let_81)) (=> (and _let_92 _let_68) _let_82)) (=> (and _let_92 _let_69) _let_83)) (=> (and _let_92 _let_70) _let_85)) (=> (and _let_93 _let_72) _let_87)) (=> (and _let_93 _let_73) _let_6)) (=> (and _let_93 _let_74) _let_80)) (=> (and _let_93 _let_75) _let_81)) (=> (and _let_93 _let_76) _let_82)) (=> (and _let_93 _let_77) _let_83)) (=> (and _let_93 _let_78) _let_84)) (=> (and _let_94 _let_8) _let_95)) (=> (and _let_94 _let_10) _let_5)) (=> (and _let_94 _let_12) _let_96)) (=> (and _let_94 _let_14) _let_97)) (=> (and _let_94 _let_16) _let_98)) (=> (and _let_94 _let_18) _let_99)) (=> (and _let_94 _let_20) _let_100)) (=> (and _let_101 _let_23) _let_102)) (=> (and _let_101 _let_25) _let_5)) (=> (and _let_101 _let_26) _let_96)) (=> (and _let_101 _let_27) _let_97)) (=> (and _let_101 _let_28) _let_98)) (=> (and _let_101 _let_29) _let_99)) (=> (and _let_101 _let_30) _let_100)) (=> (and _let_103 _let_32) _let_102)) (=> (and _let_103 _let_33) _let_95)) (=> (and _let_103 _let_34) _let_96)) (=> (and _let_103 _let_35) _let_97)) (=> (and _let_103 _let_36) _let_98)) (=> (and _let_103 _let_37) _let_99)) (=> (and _let_103 _let_38) _let_100)) (=> (and _let_104 _let_40) _let_102)) (=> (and _let_104 _let_41) _let_95)) (=> (and _let_104 _let_42) _let_5)) (=> (and _let_104 _let_43) _let_97)) (=> (and _let_104 _let_44) _let_98)) (=> (and _let_104 _let_45) _let_99)) (=> (and _let_104 _let_46) _let_100)) (=> (and _let_105 _let_48) _let_102)) (=> (and _let_105 _let_49) _let_95)) (=> (and _let_105 _let_50) _let_5)) (=> (and _let_105 _let_51) _let_96)) (=> (and _let_105 _let_52) _let_98)) (=> (and _let_105 _let_53) _let_99)) (=> (and _let_105 _let_54) _let_100)) (=> (and _let_106 _let_56) _let_102)) (=> (and _let_106 _let_57) _let_95)) (=> (and _let_106 _let_58) _let_5)) (=> (and _let_106 _let_59) _let_96)) (=> (and _let_106 _let_60) _let_97)) (=> (and _let_106 _let_61) _let_99)) (=> (and _let_106 _let_62) _let_100)) (=> (and _let_107 _let_64) _let_102)) (=> (and _let_107 _let_65) _let_95)) (=> (and _let_107 _let_66) _let_5)) (=> (and _let_107 _let_67) _let_96)) (=> (and _let_107 _let_68) _let_97)) (=> (and _let_107 _let_69) _let_98)) (=> (and _let_107 _let_70) _let_100)) (=> (and _let_108 _let_72) _let_102)) (=> (and _let_108 _let_73) _let_95)) (=> (and _let_108 _let_74) _let_5)) (=> (and _let_108 _let_75) _let_96)) (=> (and _let_108 _let_76) _let_97)) (=> (and _let_108 _let_77) _let_98)) (=> (and _let_108 _let_78) _let_99)) (=> (and _let_109 _let_8) _let_110)) (=> (and _let_109 _let_10) _let_111)) (=> (and _let_109 _let_12) _let_4)) (=> (and _let_109 _let_14) _let_112)) (=> (and _let_109 _let_16) _let_113)) (=> (and _let_109 _let_18) _let_114)) (=> (and _let_109 _let_20) _let_115)) (=> (and _let_116 _let_23) _let_117)) (=> (and _let_116 _let_25) _let_111)) (=> (and _let_116 _let_26) _let_4)) (=> (and _let_116 _let_27) _let_112)) (=> (and _let_116 _let_28) _let_113)) (=> (and _let_116 _let_29) _let_114)) (=> (and _let_116 _let_30) _let_115)) (=> (and _let_118 _let_32) _let_117)) (=> (and _let_118 _let_33) _let_110)) (=> (and _let_118 _let_34) _let_4)) (=> (and _let_118 _let_35) _let_112)) (=> (and _let_118 _let_36) _let_113)) (=> (and _let_118 _let_37) _let_114)) (=> (and _let_118 _let_38) _let_115)) (=> (and _let_119 _let_40) _let_117)) (=> (and _let_119 _let_41) _let_110)) (=> (and _let_119 _let_42) _let_111)) (=> (and _let_119 _let_43) _let_112)) (=> (and _let_119 _let_44) _let_113)) (=> (and _let_119 _let_45) _let_114)) (=> (and _let_119 _let_46) _let_115)) (=> (and _let_120 _let_48) _let_117)) (=> (and _let_120 _let_49) _let_110)) (=> (and _let_120 _let_50) _let_111)) (=> (and _let_120 _let_51) _let_4)) (=> (and _let_120 _let_52) _let_113)) (=> (and _let_120 _let_53) _let_114)) (=> (and _let_120 _let_54) _let_115)) (=> (and _let_121 _let_56) _let_117)) (=> (and _let_121 _let_57) _let_110)) (=> (and _let_121 _let_58) _let_111)) (=> (and _let_121 _let_59) _let_4)) (=> (and _let_121 _let_60) _let_112)) (=> (and _let_121 _let_61) _let_114)) (=> (and _let_121 _let_62) _let_115)) (=> (and _let_122 _let_64) _let_117)) (=> (and _let_122 _let_65) _let_110)) (=> (and _let_122 _let_66) _let_111)) (=> (and _let_122 _let_67) _let_4)) (=> (and _let_122 _let_68) _let_112)) (=> (and _let_122 _let_69) _let_113)) (=> (and _let_122 _let_70) _let_115)) (=> (and _let_123 _let_72) _let_117)) (=> (and _let_123 _let_73) _let_110)) (=> (and _let_123 _let_74) _let_111)) (=> (and _let_123 _let_75) _let_4)) (=> (and _let_123 _let_76) _let_112)) (=> (and _let_123 _let_77) _let_113)) (=> (and _let_123 _let_78) _let_114)) (=> (and _let_124 _let_8) _let_125)) (=> (and _let_124 _let_10) _let_126)) (=> (and _let_124 _let_12) _let_127)) (=> (and _let_124 _let_14) _let_3)) (=> (and _let_124 _let_16) _let_128)) (=> (and _let_124 _let_18) _let_129)) (=> (and _let_124 _let_20) _let_130)) (=> (and _let_131 _let_23) _let_132)) (=> (and _let_131 _let_25) _let_126)) (=> (and _let_131 _let_26) _let_127)) (=> (and _let_131 _let_27) _let_3)) (=> (and _let_131 _let_28) _let_128)) (=> (and _let_131 _let_29) _let_129)) (=> (and _let_131 _let_30) _let_130)) (=> (and _let_133 _let_32) _let_132)) (=> (and _let_133 _let_33) _let_125)) (=> (and _let_133 _let_34) _let_127)) (=> (and _let_133 _let_35) _let_3)) (=> (and _let_133 _let_36) _let_128)) (=> (and _let_133 _let_37) _let_129)) (=> (and _let_133 _let_38) _let_130)) (=> (and _let_134 _let_40) _let_132)) (=> (and _let_134 _let_41) _let_125)) (=> (and _let_134 _let_42) _let_126)) (=> (and _let_134 _let_43) _let_3)) (=> (and _let_134 _let_44) _let_128)) (=> (and _let_134 _let_45) _let_129)) (=> (and _let_134 _let_46) _let_130)) (=> (and _let_135 _let_48) _let_132)) (=> (and _let_135 _let_49) _let_125)) (=> (and _let_135 _let_50) _let_126)) (=> (and _let_135 _let_51) _let_127)) (=> (and _let_135 _let_52) _let_128)) (=> (and _let_135 _let_53) _let_129)) (=> (and _let_135 _let_54) _let_130)) (=> (and _let_136 _let_56) _let_132)) (=> (and _let_136 _let_57) _let_125)) (=> (and _let_136 _let_58) _let_126)) (=> (and _let_136 _let_59) _let_127)) (=> (and _let_136 _let_60) _let_3)) (=> (and _let_136 _let_61) _let_129)) (=> (and _let_136 _let_62) _let_130)) (=> (and _let_137 _let_64) _let_132)) (=> (and _let_137 _let_65) _let_125)) (=> (and _let_137 _let_66) _let_126)) (=> (and _let_137 _let_67) _let_127)) (=> (and _let_137 _let_68) _let_3)) (=> (and _let_137 _let_69) _let_128)) (=> (and _let_137 _let_70) _let_130)) (=> (and _let_138 _let_72) _let_132)) (=> (and _let_138 _let_73) _let_125)) (=> (and _let_138 _let_74) _let_126)) (=> (and _let_138 _let_75) _let_127)) (=> (and _let_138 _let_76) _let_3)) (=> (and _let_138 _let_77) _let_128)) (=> (and _let_138 _let_78) _let_129)) (=> (and _let_139 _let_8) _let_140)) (=> (and _let_139 _let_10) _let_141)) (=> (and _let_139 _let_12) _let_142)) (=> (and _let_139 _let_14) _let_143)) (=> (and _let_139 _let_16) _let_2)) (=> (and _let_139 _let_18) _let_144)) (=> (and _let_139 _let_20) _let_145)) (=> (and _let_146 _let_23) _let_147)) (=> (and _let_146 _let_25) _let_141)) (=> (and _let_146 _let_26) _let_142)) (=> (and _let_146 _let_27) _let_143)) (=> (and _let_146 _let_28) _let_2)) (=> (and _let_146 _let_29) _let_144)) (=> (and _let_146 _let_30) _let_145)) (=> (and _let_148 _let_32) _let_147)) (=> (and _let_148 _let_33) _let_140)) (=> (and _let_148 _let_34) _let_142)) (=> (and _let_148 _let_35) _let_143)) (=> (and _let_148 _let_36) _let_2)) (=> (and _let_148 _let_37) _let_144)) (=> (and _let_148 _let_38) _let_145)) (=> (and _let_149 _let_40) _let_147)) (=> (and _let_149 _let_41) _let_140)) (=> (and _let_149 _let_42) _let_141)) (=> (and _let_149 _let_43) _let_143)) (=> (and _let_149 _let_44) _let_2)) (=> (and _let_149 _let_45) _let_144)) (=> (and _let_149 _let_46) _let_145)) (=> (and _let_150 _let_48) _let_147)) (=> (and _let_150 _let_49) _let_140)) (=> (and _let_150 _let_50) _let_141)) (=> (and _let_150 _let_51) _let_142)) (=> (and _let_150 _let_52) _let_2)) (=> (and _let_150 _let_53) _let_144)) (=> (and _let_150 _let_54) _let_145)) (=> (and _let_151 _let_56) _let_147)) (=> (and _let_151 _let_57) _let_140)) (=> (and _let_151 _let_58) _let_141)) (=> (and _let_151 _let_59) _let_142)) (=> (and _let_151 _let_60) _let_143)) (=> (and _let_151 _let_61) _let_144)) (=> (and _let_151 _let_62) _let_145)) (=> (and _let_152 _let_64) _let_147)) (=> (and _let_152 _let_65) _let_140)) (=> (and _let_152 _let_66) _let_141)) (=> (and _let_152 _let_67) _let_142)) (=> (and _let_152 _let_68) _let_143)) (=> (and _let_152 _let_69) _let_2)) (=> (and _let_152 _let_70) _let_145)) (=> (and _let_153 _let_72) _let_147)) (=> (and _let_153 _let_73) _let_140)) (=> (and _let_153 _let_74) _let_141)) (=> (and _let_153 _let_75) _let_142)) (=> (and _let_153 _let_76) _let_143)) (=> (and _let_153 _let_77) _let_2)) (=> (and _let_153 _let_78) _let_144)) (=> (and _let_154 _let_8) _let_155)) (=> (and _let_154 _let_10) _let_156)) (=> (and _let_154 _let_12) _let_157)) (=> (and _let_154 _let_14) _let_158)) (=> (and _let_154 _let_16) _let_159)) (=> (and _let_154 _let_18) _let_1)) (=> (and _let_154 _let_20) _let_160)) (=> (and _let_161 _let_23) _let_162)) (=> (and _let_161 _let_25) _let_156)) (=> (and _let_161 _let_26) _let_157)) (=> (and _let_161 _let_27) _let_158)) (=> (and _let_161 _let_28) _let_159)) (=> (and _let_161 _let_29) _let_1)) (=> (and _let_161 _let_30) _let_160)) (=> (and _let_163 _let_32) _let_162)) (=> (and _let_163 _let_33) _let_155)) (=> (and _let_163 _let_34) _let_157)) (=> (and _let_163 _let_35) _let_158)) (=> (and _let_163 _let_36) _let_159)) (=> (and _let_163 _let_37) _let_1)) (=> (and _let_163 _let_38) _let_160)) (=> (and _let_164 _let_40) _let_162)) (=> (and _let_164 _let_41) _let_155)) (=> (and _let_164 _let_42) _let_156)) (=> (and _let_164 _let_43) _let_158)) (=> (and _let_164 _let_44) _let_159)) (=> (and _let_164 _let_45) _let_1)) (=> (and _let_164 _let_46) _let_160)) (=> (and _let_165 _let_48) _let_162)) (=> (and _let_165 _let_49) _let_155)) (=> (and _let_165 _let_50) _let_156)) (=> (and _let_165 _let_51) _let_157)) (=> (and _let_165 _let_52) _let_159)) (=> (and _let_165 _let_53) _let_1)) (=> (and _let_165 _let_54) _let_160)) (=> (and _let_166 _let_56) _let_162)) (=> (and _let_166 _let_57) _let_155)) (=> (and _let_166 _let_58) _let_156)) (=> (and _let_166 _let_59) _let_157)) (=> (and _let_166 _let_60) _let_158)) (=> (and _let_166 _let_61) _let_1)) (=> (and _let_166 _let_62) _let_160)) (=> (and _let_167 _let_64) _let_162)) (=> (and _let_167 _let_65) _let_155)) (=> (and _let_167 _let_66) _let_156)) (=> (and _let_167 _let_67) _let_157)) (=> (and _let_167 _let_68) _let_158)) (=> (and _let_167 _let_69) _let_159)) (=> (and _let_167 _let_70) _let_160)) (=> (and _let_168 _let_72) _let_162)) (=> (and _let_168 _let_73) _let_155)) (=> (and _let_168 _let_74) _let_156)) (=> (and _let_168 _let_75) _let_157)) (=> (and _let_168 _let_76) _let_158)) (=> (and _let_168 _let_77) _let_159)) (=> (and _let_168 _let_78) _let_1)) (=> (and _let_169 _let_8) _let_170)) (=> (and _let_169 _let_10) _let_171)) (=> (and _let_169 _let_12) _let_172)) (=> (and _let_169 _let_14) _let_173)) (=> (and _let_169 _let_16) _let_174)) (=> (and _let_169 _let_18) _let_175)) (=> (and _let_169 _let_20) _let_0)) (=> (and _let_176 _let_23) _let_177)) (=> (and _let_176 _let_25) _let_171)) (=> (and _let_176 _let_26) _let_172)) (=> (and _let_176 _let_27) _let_173)) (=> (and _let_176 _let_28) _let_174)) (=> (and _let_176 _let_29) _let_175)) (=> (and _let_176 _let_30) _let_0)) (=> (and _let_178 _let_32) _let_177)) (=> (and _let_178 _let_33) _let_170)) (=> (and _let_178 _let_34) _let_172)) (=> (and _let_178 _let_35) _let_173)) (=> (and _let_178 _let_36) _let_174)) (=> (and _let_178 _let_37) _let_175)) (=> (and _let_178 _let_38) _let_0)) (=> (and _let_179 _let_40) _let_177)) (=> (and _let_179 _let_41) _let_170)) (=> (and _let_179 _let_42) _let_171)) (=> (and _let_179 _let_43) _let_173)) (=> (and _let_179 _let_44) _let_174)) (=> (and _let_179 _let_45) _let_175)) (=> (and _let_179 _let_46) _let_0)) (=> (and _let_180 _let_48) _let_177)) (=> (and _let_180 _let_49) _let_170)) (=> (and _let_180 _let_50) _let_171)) (=> (and _let_180 _let_51) _let_172)) (=> (and _let_180 _let_52) _let_174)) (=> (and _let_180 _let_53) _let_175)) (=> (and _let_180 _let_54) _let_0)) (=> (and _let_181 _let_56) _let_177)) (=> (and _let_181 _let_57) _let_170)) (=> (and _let_181 _let_58) _let_171)) (=> (and _let_181 _let_59) _let_172)) (=> (and _let_181 _let_60) _let_173)) (=> (and _let_181 _let_61) _let_175)) (=> (and _let_181 _let_62) _let_0)) (=> (and _let_182 _let_64) _let_177)) (=> (and _let_182 _let_65) _let_170)) (=> (and _let_182 _let_66) _let_171)) (=> (and _let_182 _let_67) _let_172)) (=> (and _let_182 _let_68) _let_173)) (=> (and _let_182 _let_69) _let_174)) (=> (and _let_182 _let_70) _let_0)) (=> (and _let_183 _let_72) _let_177)) (=> (and _let_183 _let_73) _let_170)) (=> (and _let_183 _let_74) _let_171)) (=> (and _let_183 _let_75) _let_172)) (=> (and _let_183 _let_76) _let_173)) (=> (and _let_183 _let_77) _let_174)) (=> (and _let_183 _let_78) _let_175)))))))))))))))))))))))))))))))))))))))))))))))))))))))))))))))))))))))))))))))))))))))))))))))))))))))))))))))))))))))))))))))))))))))))))))))))))))))))))))))))))))))))))))))))))))))))))
(assert (and (and true (distinct t!1 t!4)) (distinct t!0 t!8 t!12 t!16 t!20 t!24 t!28 t!32)))
(check-sat)
